;; translated from ./bv/down.c.vmt
;; original benchmark available at: https://es-static.fbk.eu/people/griggio/ic3ia/index.html
;; author: Alberto Griggio <griggio@fbk.eu>
(set-logic HORN)
(declare-fun state (Bool Bool Bool (_ BitVec 32) (_ BitVec 32) (_ BitVec 32) (_ BitVec 32) (_ BitVec 32)) Bool)
(assert (forall ((|.PC.1.next| Bool) (|.PC.0.next| Bool) (|.PC.2.next| Bool) (|__RET__$main.next| (_ BitVec 32)) (|__RET__$main| (_ BitVec 32)) (|j__7$main.next| (_ BitVec 32)) (|j__7$main| (_ BitVec 32)) (|n__1$main| (_ BitVec 32)) (|n__1$main.next| (_ BitVec 32)) (|k__3$main| (_ BitVec 32)) (|k__3$main.next| (_ BitVec 32)) (|i__5$main| (_ BitVec 32)) (|i__5$main.next| (_ BitVec 32)) (|__NONDET_INLINE_INIT__2__4$main#0| (_ BitVec 32)) (|.PC.1| Bool) (|.PC.0| Bool) (|.PC.2| Bool)) (=> (let ((.def_12 (not .PC.1)))
(let ((.def_13 (and .PC.0 .def_12)))
(let ((.def_14 (and .PC.2 .def_13)))
.def_14))) (state |.PC.2| |.PC.0| |.PC.1| |j__7$main| |__RET__$main| |n__1$main| |i__5$main| |k__3$main|))))
(assert (forall ((|.PC.1.next| Bool) (|.PC.0.next| Bool) (|.PC.2.next| Bool) (|__RET__$main.next| (_ BitVec 32)) (|__RET__$main| (_ BitVec 32)) (|j__7$main.next| (_ BitVec 32)) (|j__7$main| (_ BitVec 32)) (|n__1$main| (_ BitVec 32)) (|n__1$main.next| (_ BitVec 32)) (|k__3$main| (_ BitVec 32)) (|k__3$main.next| (_ BitVec 32)) (|i__5$main| (_ BitVec 32)) (|i__5$main.next| (_ BitVec 32)) (|__NONDET_INLINE_INIT__2__4$main#0| (_ BitVec 32)) (|.PC.1| Bool) (|.PC.0| Bool) (|.PC.2| Bool)) (=> (and (state |.PC.2| |.PC.0| |.PC.1| |j__7$main| |__RET__$main| |n__1$main| |i__5$main| |k__3$main|) (let ((.def_61 (not .PC.0)))
(let ((.def_12 (not .PC.1)))
(let ((.def_62 (and .def_12 .def_61)))
(let ((.def_118 (and .PC.2 .def_62)))
(let ((.def_38 (not .PC.1.next)))
(let ((.def_36 (not .PC.0.next)))
(let ((.def_39 (and .def_36 .def_38)))
(let ((.def_114 (and .PC.2.next .def_39)))
(let ((.def_119 (and .def_114 .def_118)))
(let ((.def_31 (= __RET__$main __RET__$main.next)))
(let ((.def_27 (= j__7$main j__7$main.next)))
(let ((.def_110 (and .def_27 .def_31)))
(let ((.def_50 (= n__1$main.next n__1$main)))
(let ((.def_111 (and .def_50 .def_110)))
(let ((.def_53 (= k__3$main.next k__3$main)))
(let ((.def_112 (and .def_53 .def_111)))
(let ((.def_55 (= i__5$main.next i__5$main)))
(let ((.def_113 (and .def_55 .def_112)))
(let ((.def_115 (and .def_113 .def_114)))
(let ((.def_108 (and .PC.0 .PC.1)))
(let ((.def_60 (not .PC.2)))
(let ((.def_109 (and .def_60 .def_108)))
(let ((.def_116 (and .def_109 .def_115)))
(let ((.def_99 (bvadd (_ bv4294967295 32) k__3$main)))
(let ((.def_100 (= k__3$main.next .def_99)))
(let ((.def_96 (bvadd (_ bv4294967295 32) j__7$main)))
(let ((.def_97 (= j__7$main.next .def_96)))
(let ((.def_81 (bvslt (_ bv0 32) j__7$main)))
(let ((.def_79 (bvslt (_ bv0 32) k__3$main)))
(let ((.def_94 (and .def_79 .def_81)))
(let ((.def_98 (and .def_94 .def_97)))
(let ((.def_101 (and .def_98 .def_100)))
(let ((.def_102 (and .def_31 .def_101)))
(let ((.def_103 (and .def_50 .def_102)))
(let ((.def_104 (and .def_55 .def_103)))
(let ((.def_57 (and .PC.0.next .def_38)))
(let ((.def_34 (not .PC.2.next)))
(let ((.def_58 (and .def_34 .def_57)))
(let ((.def_105 (and .def_58 .def_104)))
(let ((.def_13 (and .PC.0 .def_12)))
(let ((.def_91 (and .def_13 .def_60)))
(let ((.def_106 (and .def_91 .def_105)))
(let ((.def_88 (and .PC.0.next .PC.1.next)))
(let ((.def_89 (and .def_34 .def_88)))
(let ((.def_80 (not .def_79)))
(let ((.def_82 (and .def_80 .def_81)))
(let ((.def_83 (and .def_27 .def_82)))
(let ((.def_84 (and .def_31 .def_83)))
(let ((.def_85 (and .def_50 .def_84)))
(let ((.def_86 (and .def_53 .def_85)))
(let ((.def_87 (and .def_55 .def_86)))
(let ((.def_90 (and .def_87 .def_89)))
(let ((.def_92 (and .def_90 .def_91)))
(let ((.def_70 (bvadd (_ bv1 32) k__3$main)))
(let ((.def_71 (= k__3$main.next .def_70)))
(let ((.def_67 (bvadd (_ bv1 32) i__5$main)))
(let ((.def_68 (= i__5$main.next .def_67)))
(let ((.def_45 (bvslt i__5$main n__1$main)))
(let ((.def_69 (and .def_45 .def_68)))
(let ((.def_72 (and .def_69 .def_71)))
(let ((.def_73 (and .def_27 .def_72)))
(let ((.def_74 (and .def_31 .def_73)))
(let ((.def_75 (and .def_50 .def_74)))
(let ((.def_40 (and .def_34 .def_39)))
(let ((.def_76 (and .def_40 .def_75)))
(let ((.def_63 (and .def_60 .def_62)))
(let ((.def_77 (and .def_63 .def_76)))
(let ((.def_47 (= j__7$main.next n__1$main)))
(let ((.def_46 (not .def_45)))
(let ((.def_48 (and .def_46 .def_47)))
(let ((.def_49 (and .def_31 .def_48)))
(let ((.def_51 (and .def_49 .def_50)))
(let ((.def_54 (and .def_51 .def_53)))
(let ((.def_56 (and .def_54 .def_55)))
(let ((.def_59 (and .def_56 .def_58)))
(let ((.def_64 (and .def_59 .def_63)))
(let ((.def_23 (= i__5$main.next (_ bv0 32))))
(let ((.def_20 (= k__3$main.next (_ bv0 32))))
(let ((.def_17 (= n__1$main.next |__NONDET_INLINE_INIT__2__4$main#0|)))
(let ((.def_21 (and .def_17 .def_20)))
(let ((.def_24 (and .def_21 .def_23)))
(let ((.def_28 (and .def_24 .def_27)))
(let ((.def_32 (and .def_28 .def_31)))
(let ((.def_41 (and .def_32 .def_40)))
(let ((.def_14 (and .PC.2 .def_13)))
(let ((.def_42 (and .def_14 .def_41)))
(let ((.def_65 (or .def_42 .def_64)))
(let ((.def_78 (or .def_65 .def_77)))
(let ((.def_93 (or .def_78 .def_92)))
(let ((.def_107 (or .def_93 .def_106)))
(let ((.def_117 (or .def_107 .def_116)))
(let ((.def_120 (or .def_117 .def_119)))
.def_120))))))))))))))))))))))))))))))))))))))))))))))))))))))))))))))))))))))))))))))))))))))))))))) (state |.PC.2.next| |.PC.0.next| |.PC.1.next| |j__7$main.next| |__RET__$main.next| |n__1$main.next| |i__5$main.next| |k__3$main.next|))))
(assert (forall ((|.PC.1.next| Bool) (|.PC.0.next| Bool) (|.PC.2.next| Bool) (|__RET__$main.next| (_ BitVec 32)) (|__RET__$main| (_ BitVec 32)) (|j__7$main.next| (_ BitVec 32)) (|j__7$main| (_ BitVec 32)) (|n__1$main| (_ BitVec 32)) (|n__1$main.next| (_ BitVec 32)) (|k__3$main| (_ BitVec 32)) (|k__3$main.next| (_ BitVec 32)) (|i__5$main| (_ BitVec 32)) (|i__5$main.next| (_ BitVec 32)) (|__NONDET_INLINE_INIT__2__4$main#0| (_ BitVec 32)) (|.PC.1| Bool) (|.PC.0| Bool) (|.PC.2| Bool)) (=> (state |.PC.2| |.PC.0| |.PC.1| |j__7$main| |__RET__$main| |n__1$main| |i__5$main| |k__3$main|) (let ((.def_61 (not .PC.0)))
(let ((.def_12 (not .PC.1)))
(let ((.def_62 (and .def_12 .def_61)))
(let ((.def_118 (and .PC.2 .def_62)))
(let ((.def_121 (not .def_118)))
.def_121))))))))
(check-sat)
